51
100
70	15
69	9
68	13
67	17
66	9
65	13
64	14
63	10
62	8
61	11
60	14
59	19
58	18
57	12
56	13
55	16
54	13
53	19
52	19
51	14
50	22
49	20
48	14
47	16
46	11
45	15
44	17
43	15
42	15
41	8
40	15
39	21
38	14
37	15
36	13
35	16
34	18
33	21
32	12
31	15
30	9
29	15
28	13
27	19
26	17
25	8
24	17
23	20
22	8
21	17
20	18
